941.79,39.98,45.66
932.52,40.38,46.12
894.64,42.09,48.07
863.7,43.6,49.79
833.47,45.18,51.6
868.08,43.38,49.54
871.1,43.23,49.37
836.12,45.03,51.43
873.24,43.12,49.25
739.36,50.93,58.16
886.37,42.48,48.52
795.66,47.32,54.05
884.66,42.56,48.61
856.78,43.95,50.19
854.28,44.08,50.34
877.22,42.92,49.02
792.55,47.51,54.26
836.03,45.04,51.44
726.04,51.86,59.23
878.67,42.85,48.94
